97
0 27 72 3 77 71 53 28 81 18 
23 17 74 70 19 42 93 79 29 62 
51 61 2 84 65 49 94 46 82 11 
87 64 12 89 60 34 96 20 75 25 
39 95 52 36 57 38 30 55 83 86 
68 90 9 1 44 22 13 32 73 63 
59 58 16 37 8 31 41 7 78 5 
45 4 14 88 80 69 26 35 85 92 
21 10 47 54 33 91 48 50 6 66 
56 76 43 40 15 67 24 
